c User generated cnf file
p cnf 7 37
-4 1 1 0 
3 -7 7 0 
-1 3 1 0 
4 -7 3 0 
6 4 -4 0 
2 2 -7 0 
6 5 -4 0 
2 -2 7 0 
-1 1 7 0 
-5 4 2 0 
2 -4 5 0 
4 -3 3 0 
2 2 -1 0 
1 -1 4 0 
7 -6 5 0 
-4 3 6 0 
1 -1 6 0 
2 -2 2 0 
2 -5 5 0 
2 -7 3 0 
-2 5 2 0 
1 -3 3 0 
-2 7 7 0 
1 -5 1 0 
2 7 -7 0 
-1 6 7 0 
-6 5 1 0 
-6 2 4 0 
2 -3 7 0 
5 -3 6 0 
4 -6 1 0 
-7 5 5 0 
-1 4 4 0 
-5 2 5 0 
6 -1 4 0 
-4 6 4 0 
5 2 -7 0 
